p edge 42 392
e 1 2
e 1 7
e 1 8
e 1 9
e 1 11
e 1 12
e 1 15
e 1 17
e 1 19
e 1 20
e 1 21
e 1 22
e 1 23
e 1 27
e 1 33
e 1 36
e 1 37
e 1 38
e 1 39
e 2 8
e 2 17
e 2 18
e 2 20
e 2 23
e 2 25
e 2 26
e 2 27
e 2 28
e 2 29
e 2 30
e 2 31
e 2 32
e 2 34
e 2 39
e 3 5
e 3 6
e 3 7
e 3 9
e 3 11
e 3 14
e 3 20
e 3 21
e 3 23
e 3 32
e 3 35
e 3 36
e 3 38
e 3 42
e 4 5
e 4 6
e 4 7
e 4 9
e 4 13
e 4 16
e 4 18
e 4 19
e 4 20
e 4 21
e 4 22
e 4 27
e 4 29
e 4 31
e 4 33
e 4 36
e 4 37
e 4 40
e 4 41
e 4 42
e 5 6
e 5 8
e 5 10
e 5 12
e 5 13
e 5 15
e 5 21
e 5 23
e 5 24
e 5 26
e 5 30
e 5 33
e 5 34
e 5 35
e 5 37
e 5 41
e 5 42
e 6 7
e 6 8
e 6 9
e 6 16
e 6 17
e 6 18
e 6 20
e 6 21
e 6 22
e 6 24
e 6 25
e 6 33
e 6 34
e 6 38
e 6 42
e 7 12
e 7 13
e 7 15
e 7 16
e 7 17
e 7 19
e 7 22
e 7 25
e 7 27
e 7 28
e 7 29
e 7 32
e 7 33
e 7 34
e 7 35
e 7 38
e 7 40
e 8 9
e 8 10
e 8 11
e 8 16
e 8 23
e 8 24
e 8 26
e 8 27
e 8 29
e 8 30
e 8 34
e 8 36
e 8 39
e 8 40
e 9 10
e 9 11
e 9 14
e 9 15
e 9 17
e 9 18
e 9 20
e 9 22
e 9 23
e 9 24
e 9 25
e 9 26
e 9 28
e 9 30
e 9 34
e 9 37
e 9 40
e 10 11
e 10 13
e 10 14
e 10 16
e 10 17
e 10 18
e 10 20
e 10 21
e 10 25
e 10 28
e 10 29
e 10 30
e 10 32
e 10 33
e 10 34
e 10 35
e 10 36
e 10 37
e 10 40
e 10 42
e 11 12
e 11 14
e 11 16
e 11 18
e 11 19
e 11 23
e 11 24
e 11 25
e 11 26
e 11 29
e 11 30
e 11 31
e 11 32
e 11 34
e 11 36
e 11 38
e 11 40
e 11 41
e 11 42
e 12 13
e 12 15
e 12 16
e 12 17
e 12 22
e 12 26
e 12 28
e 12 30
e 12 34
e 12 42
e 13 15
e 13 18
e 13 23
e 13 25
e 13 26
e 13 27
e 13 28
e 13 30
e 13 31
e 13 34
e 13 35
e 13 37
e 13 40
e 14 15
e 14 16
e 14 17
e 14 20
e 14 21
e 14 23
e 14 24
e 14 25
e 14 27
e 14 28
e 14 30
e 14 31
e 14 34
e 14 40
e 15 17
e 15 19
e 15 20
e 15 22
e 15 26
e 15 30
e 15 31
e 15 32
e 15 33
e 15 34
e 15 37
e 15 38
e 15 40
e 15 41
e 16 17
e 16 18
e 16 20
e 16 22
e 16 26
e 16 29
e 16 31
e 16 32
e 16 34
e 16 36
e 16 37
e 16 40
e 16 42
e 17 18
e 17 19
e 17 26
e 17 27
e 17 30
e 17 32
e 17 33
e 17 37
e 17 38
e 17 39
e 17 41
e 17 42
e 18 19
e 18 27
e 18 29
e 18 33
e 18 38
e 18 39
e 18 40
e 19 23
e 19 26
e 19 30
e 19 31
e 19 32
e 19 35
e 19 37
e 19 38
e 19 40
e 20 24
e 20 26
e 20 27
e 20 28
e 20 30
e 20 31
e 20 32
e 20 34
e 20 36
e 20 37
e 20 39
e 20 41
e 20 42
e 21 22
e 21 29
e 21 30
e 21 34
e 21 35
e 21 36
e 21 37
e 22 23
e 22 30
e 22 31
e 22 37
e 22 41
e 22 42
e 23 24
e 23 26
e 23 27
e 23 33
e 23 36
e 23 38
e 23 39
e 23 42
e 24 28
e 24 29
e 24 30
e 24 32
e 24 34
e 24 41
e 24 42
e 25 27
e 25 28
e 25 29
e 25 30
e 25 32
e 25 33
e 25 34
e 25 35
e 25 36
e 26 30
e 26 31
e 26 32
e 26 33
e 26 36
e 26 38
e 26 39
e 26 42
e 27 30
e 27 31
e 27 32
e 27 37
e 27 38
e 27 39
e 28 31
e 28 32
e 28 33
e 28 35
e 28 36
e 29 33
e 29 34
e 29 35
e 29 36
e 29 37
e 29 41
e 29 42
e 30 31
e 30 34
e 30 37
e 30 38
e 30 41
e 31 32
e 31 33
e 31 37
e 31 38
e 31 39
e 31 40
e 31 41
e 32 34
e 32 35
e 32 36
e 32 38
e 32 41
e 33 37
e 33 38
e 33 40
e 33 41
e 34 36
e 34 38
e 34 39
e 35 39
e 35 40
e 35 41
e 36 40
e 37 40
e 37 41
e 37 42
e 38 40
e 38 41
e 39 41
e 39 42
e 40 41
e 40 42
